
Gurobi 11.0.1 (win64) logging started Tue May 14 18:34:59 2024

Set parameter LogFile to value "output/solver_log10.txt"
Gurobi Optimizer version 11.0.1 build v11.0.1rc0 (win64 - Windows 11.0 (22631.2))

CPU model: 11th Gen Intel(R) Core(TM) i7-1165G7 @ 2.80GHz, instruction set [SSE2|AVX|AVX2|AVX512]
Thread count: 4 physical cores, 8 logical processors, using up to 8 threads

Optimize a model with 1419 rows, 562 columns and 25898 nonzeros
Model fingerprint: 0xdd76364e
Variable types: 88 continuous, 474 integer (474 binary)
Coefficient statistics:
  Matrix range     [4e-01, 1e+05]
  Objective range  [1e+00, 1e+02]
  Bounds range     [1e+00, 1e+00]
  RHS range        [1e-02, 1e+05]

User MIP start produced solution with objective 57460.5 (0.00s)
User MIP start produced solution with objective 57460.5 (0.01s)
Loaded user MIP start with objective 57460.5

Presolve removed 251 rows and 255 columns
Presolve time: 0.02s
Presolved: 1168 rows, 307 columns, 23744 nonzeros
Variable types: 83 continuous, 224 integer (223 binary)

Root relaxation: objective 5.788555e+04, 466 iterations, 0.01 seconds (0.03 work units)

    Nodes    |    Current Node    |     Objective Bounds      |     Work
 Expl Unexpl |  Obj  Depth IntInf | Incumbent    BestBd   Gap | It/Node Time

     0     0 57885.5540    0    7 57460.4703 57885.5540  0.74%     -    0s
     0     0 57885.5540    0    7 57460.4703 57885.5540  0.74%     -    0s
     0     0 57885.5540    0    5 57460.4703 57885.5540  0.74%     -    0s
     0     0 57885.5540    0    5 57460.4703 57885.5540  0.74%     -    0s
     0     2 57885.5540    0    5 57460.4703 57885.5540  0.74%     -    0s
  1342   979 57658.7761   54    9 57460.4703 57885.5540  0.74%  87.4    5s
  2468  1279 57885.5540   31   15 57460.4703 57885.5540  0.74%  92.1   10s
  3733  1577 57518.7269   67   18 57460.4703 57885.5540  0.74%  86.5   15s
  5834  2561 57885.5509   28   27 57460.4703 57885.5540  0.74%  80.2   21s
  6378  2653 57885.5280   42   36 57460.4703 57885.5540  0.74%  78.7   25s
  8380  3995 infeasible   37      57460.4703 57885.5540  0.74%  77.5   30s
 10147  4884 infeasible   32      57460.4703 57885.5540  0.74%  75.2   41s
 12497  6021 57501.8769   60   14 57460.4703 57885.5540  0.74%  75.2   45s
 14473  7056 57885.5540   54   22 57460.4703 57885.5540  0.74%  77.0   50s
 17367  8260 57885.5092   48   29 57460.4703 57885.5540  0.74%  75.9   55s
 20157  9198 57540.6994   63   19 57460.4703 57885.5540  0.74%  74.5   60s

Explored 20259 nodes (1509751 simplex iterations) in 60.01 seconds (134.37 work units)
Thread count was 8 (of 8 available processors)

Solution count 2: 57460.5 57460.5 

Time limit reached
Best objective 5.746047030979e+04, best bound 5.788555399472e+04, gap 0.7398%
